145 45 120 189 100 194 197 73 111 6 131 66 74 158 175 35 128 107 198 196 190 28 127 57 102 110 192 21 184 172 41 22 109 167 10 88 152 69 48 169 97 138 139 89 16 166 96 104 31 93 161 125 199 155 0 49 168 174 129 80 33 148 185 37 65 7 51 137 119 179 26 23 164 87 178 12 180 78 146 40 83 136 171 14 72 38 187 70 121 122 92 43 59 52 123 117 144 135 18 195 36 61 34 118 50 191 99 29 143 1 47 140 91 116 177 54 112 86 25 162 130 147 94 55 150 27 11 114 132 46 20 181 163 113 24 19 141 9 8 101 115 4 176 2 82 39 5 58 149 63 154 3 42 76 90 53 153 62 15 151 95 85 188 142 84 17 81 182 105 103 186 159 64 173 13 67 32 165 44 98 77 30 56 71 134 160 75 79 193 156 106 183 157 68 133 126 170 60 108 124